<number of tasks>
50

<cycle time>
1000

<order strength>
0.896


<task times>
1 42
2 101
3 235
4 151
5 59
6 34
7 131
8 272
9 73
10 48
11 360
12 21
13 21
14 86
15 98
16 136
17 178
18 45
19 215
20 23
21 132
22 146
23 130
24 121
25 102
26 166
27 242
28 128
29 209
30 287
31 172
32 74
33 63
34 265
35 252
36 146
37 140
38 169
39 60
40 281
41 143
42 166
43 186
44 26
45 35
46 189
47 44
48 73
49 71
50 125

<precedence relations>
1,4
1,6
1,8
2,4
2,5
2,6
2,7
3,4
3,5
3,6
3,7
4,10
5,8
5,9
6,9
7,8
7,9
7,10
8,12
9,11
9,12
10,11
11,13
11,14
11,15
12,14
12,15
13,16
13,17
14,16
14,17
15,16
15,17
16,18
16,19
17,18
17,19
18,20
18,21
18,22
19,20
19,21
19,22
20,23
20,24
21,23
21,24
22,23
22,24
23,25
23,26
23,27
24,25
24,26
24,27
25,28
25,29
25,30
26,28
26,29
26,30
27,47
28,31
29,32
30,31
31,33
31,34
31,35
32,35
33,36
34,36
34,37
35,38
35,40
36,40
36,41
37,45
38,39
38,41
39,43
39,48
39,50
40,42
40,43
41,42
41,43
42,44
42,45
43,46
43,47
44,48
44,50
45,49
47,49

<end>
